
(set-logic HORN)
(declare-datatypes ((Bin_3 0)) (((One_3) (ZeroAnd_3 (projZeroAnd_6 Bin_3)) (OneAnd_3 (projOneAnd_6 Bin_3)))))
(declare-fun diseqBin_3 (Bin_3 Bin_3) Bool)
(declare-fun projZeroAnd_7 (Bin_3 Bin_3) Bool)
(declare-fun projOneAnd_7 (Bin_3 Bin_3) Bool)
(declare-fun isOne_3 (Bin_3) Bool)
(declare-fun isZeroAnd_3 (Bin_3) Bool)
(declare-fun isOneAnd_3 (Bin_3) Bool)
(assert (forall ((x_22160 Bin_3))
	(projZeroAnd_7 x_22160 (ZeroAnd_3 x_22160))))
(assert (forall ((x_22162 Bin_3))
	(projOneAnd_7 x_22162 (OneAnd_3 x_22162))))
(assert (isOne_3 One_3))
(assert (forall ((x_22164 Bin_3))
	(isZeroAnd_3 (ZeroAnd_3 x_22164))))
(assert (forall ((x_22165 Bin_3))
	(isOneAnd_3 (OneAnd_3 x_22165))))
(assert (forall ((x_22166 Bin_3))
	(diseqBin_3 One_3 (ZeroAnd_3 x_22166))))
(assert (forall ((x_22167 Bin_3))
	(diseqBin_3 One_3 (OneAnd_3 x_22167))))
(assert (forall ((x_22168 Bin_3))
	(diseqBin_3 (ZeroAnd_3 x_22168) One_3)))
(assert (forall ((x_22169 Bin_3))
	(diseqBin_3 (OneAnd_3 x_22169) One_3)))
(assert (forall ((x_22170 Bin_3) (x_22171 Bin_3))
	(diseqBin_3 (ZeroAnd_3 x_22170) (OneAnd_3 x_22171))))
(assert (forall ((x_22172 Bin_3) (x_22173 Bin_3))
	(diseqBin_3 (OneAnd_3 x_22172) (ZeroAnd_3 x_22173))))
(assert (forall ((x_22174 Bin_3) (x_22175 Bin_3))
	(=> (diseqBin_3 x_22174 x_22175) (diseqBin_3 (ZeroAnd_3 x_22174) (ZeroAnd_3 x_22175)))))
(assert (forall ((x_22176 Bin_3) (x_22177 Bin_3))
	(=> (diseqBin_3 x_22176 x_22177) (diseqBin_3 (OneAnd_3 x_22176) (OneAnd_3 x_22177)))))
(declare-fun s_235 (Bin_3 Bin_3) Bool)
(assert (forall ((x_22129 Bin_3) (ys_71 Bin_3))
	(=> (s_235 x_22129 ys_71) (s_235 (ZeroAnd_3 x_22129) (OneAnd_3 ys_71)))))
(assert (forall ((xs_259 Bin_3))
	(s_235 (OneAnd_3 xs_259) (ZeroAnd_3 xs_259))))
(assert (s_235 (ZeroAnd_3 One_3) One_3))
(declare-fun plus_40 (Bin_3 Bin_3 Bin_3) Bool)
(assert (forall ((x_22133 Bin_3) (x_22134 Bin_3) (ys_72 Bin_3) (x_22125 Bin_3))
	(=> (and (plus_40 x_22133 x_22125 ys_72) (s_235 x_22134 x_22133)) (plus_40 (ZeroAnd_3 x_22134) (OneAnd_3 x_22125) (OneAnd_3 ys_72)))))
(assert (forall ((x_22136 Bin_3) (zs_16 Bin_3) (x_22125 Bin_3))
	(=> (plus_40 x_22136 x_22125 zs_16) (plus_40 (OneAnd_3 x_22136) (OneAnd_3 x_22125) (ZeroAnd_3 zs_16)))))
(assert (forall ((x_22137 Bin_3) (x_22125 Bin_3))
	(=> (s_235 x_22137 (OneAnd_3 x_22125)) (plus_40 x_22137 (OneAnd_3 x_22125) One_3))))
(assert (forall ((x_22140 Bin_3) (xs_260 Bin_3) (z_840 Bin_3))
	(=> (plus_40 x_22140 z_840 xs_260) (plus_40 (OneAnd_3 x_22140) (ZeroAnd_3 z_840) (OneAnd_3 xs_260)))))
(assert (forall ((x_22142 Bin_3) (ys_73 Bin_3) (z_840 Bin_3))
	(=> (plus_40 x_22142 z_840 ys_73) (plus_40 (ZeroAnd_3 x_22142) (ZeroAnd_3 z_840) (ZeroAnd_3 ys_73)))))
(assert (forall ((x_22143 Bin_3) (z_840 Bin_3))
	(=> (s_235 x_22143 (ZeroAnd_3 z_840)) (plus_40 x_22143 (ZeroAnd_3 z_840) One_3))))
(assert (forall ((x_22145 Bin_3) (y_840 Bin_3))
	(=> (s_235 x_22145 y_840) (plus_40 x_22145 One_3 y_840))))
(declare-fun times_8 (Bin_3 Bin_3 Bin_3) Bool)
(assert (forall ((x_22147 Bin_3) (x_22148 Bin_3) (xs_261 Bin_3) (y_841 Bin_3))
	(=> (and (times_8 x_22148 xs_261 y_841) (plus_40 x_22147 (ZeroAnd_3 x_22148) y_841)) (times_8 x_22147 (OneAnd_3 xs_261) y_841))))
(assert (forall ((x_22151 Bin_3) (xs_262 Bin_3) (y_841 Bin_3))
	(=> (times_8 x_22151 xs_262 y_841) (times_8 (ZeroAnd_3 x_22151) (ZeroAnd_3 xs_262) y_841))))
(assert (forall ((x_22152 Bin_3))
	(times_8 x_22152 One_3 x_22152)))
(assert (forall ((x_22153 Bin_3) (x_22154 Bin_3) (x_22155 Bin_3) (x_22156 Bin_3) (x_22157 Bin_3) (x_22127 Bin_3) (y_842 Bin_3) (z_841 Bin_3))
	(=> (and true (diseqBin_3 x_22154 x_22157) (plus_40 x_22153 y_842 z_841) (times_8 x_22154 x_22127 x_22153) (times_8 x_22155 x_22127 y_842) (times_8 x_22156 x_22127 z_841) (plus_40 x_22157 x_22155 x_22156)) false)))
(check-sat)
